NAME : in_house_7_19
TYPE : TSP
DIMENSION : 7
EDGE_WEIGHT_TYPE : EXPLICIT
EDGE_WEIGHT_FORMAT : UPPER_ROW
COMMENT : INVERSION_SHIFT=7
EDGE_WEIGHT_SECTION
49
40
18
49
25
16
32
7
39
37
28
15
8
2
17
38
13
32
12
39
5
